param set_len = 50;
param target := 10996275;
set values := 724619, 1032038, 468070, 638460, 947271, 1042927, 258688, 220505, 47029, 62162, 734330, 823176, 190336, 995483, 51213, 359927, 280702, 350859, 767650, 81574, 755162, 436678, 491982, 499318, 1043154, 239655, 786638, 350746, 692014, 834180, 784547, 858938, 605143, 159466, 486435, 945954, 94995, 476205, 305673, 269599, 905161, 248519, 113521, 323817, 242719, 55496, 70681, 427414, 1935, 258062, ;
